%
% Generated Sudoku 25x25
% Density approximation: 0.60
%
x = array2d(1..n, 1..n, [
   _,  14,  23,   _,   _,   _,  21,  13,  16,  25,   _,   4,   _,   8,  10,   _,  20,  12,   _,   2,   5,  11,  15,  19,  18,
  16,  19,   _,  11,   5,   _,  23,   _,  12,  18,   _,  25,   _,  15,   _,  10,   _,   7,  22,  13,   _,   _,  24,   1,   _,
  17,   _,  12,  25,  13,   3,   4,   _,   _,  20,   _,   _,  21,  24,  11,   _,   5,   _,  19,   8,   _,   _,  22,   6,   _,
  22,   8,   _,   _,  21,  14,   5,   7,  19,   _,   1,  16,   _,  13,   2,  18,   6,  11,   _,   _,   _,   4,  25,  12,   3,
   _,  24,   _,   _,   _,   _,  17,  22,   _,   6,   7,   5,  12,  19,  23,  25,   _,   9,   3,  14,   _,   _,  10,   _,   _,
  10,   _,   _,  17,  23,  16,  12,  21,   _,   4,  11,   _,   5,   1,  24,  19,  15,  14,   9,   _,  18,  22,   2,  20,  25,
  15,  18,   5,  22,  14,  24,  20,   _,   _,  11,   _,   _,  25,   _,  21,   1,  10,   _,   _,   4,  12,   3,  13,   _,   _,
  24,   2,  25,   9,   7,  18,  19,  14,   3,   _,   _,   _,   _,   4,   _,   8,  11,  21,  20,   6,   _,  16,  23,   _,  10,
   _,  20,   _,  19,   _,   5,  15,   _,   _,   _,  10,  18,   8,  14,   _,  22,  12,  13,   _,   _,   6,  17,   _,  24,   _,
  13,  21,   _,  12,   4,   _,  25,   8,   _,   _,   _,   _,   _,  16,  17,   5,   _,   3,  18,  23,  11,   _,   7,  14,   9,
  12,  11,  14,   _,   2,   _,   8,   5,  23,   7,   _,  15,   _,  18,   _,   3,  13,   _,   _,   9,   _,  25,   _,  17,  16,
   _,  23,  13,  24,  19,   _,   _,   _,   _,   2,   _,   _,   4,   9,   _,  11,  18,   _,   _,   1,   _,   _,   5,   _,   7,
   5,  10,  22,   6,   _,   _,  18,   _,  21,   9,  13,  23,   _,  20,  19,   _,  25,   _,   8,  16,  24,   _,   _,   _,   _,
   _,   1,   _,   4,   9,   _,  13,  24,   _,  16,   5,   _,   _,  17,   8,  20,   7,  10,   _,   _,   _,   _,  18,   2,  23,
  18,   7,  20,  16,   _,   _,  14,   _,   4,  19,   3,   _,   _,   _,   6,   _,  22,  17,   _,   _,   _,   8,   9,   _,   _,
  21,  17,   _,  13,   _,   _,   7,   _,   9,  22,   8,   _,  16,  11,   _,   2,   _,  23,   _,   _,   _,  24,   _,   _,   _,
   1,   4,  24,  10,   _,  13,  11,  15,  18,  14,  12,   _,   _,   5,  25,   6,   _,   _,   7,  17,   8,   _,   _,  22,  21,
   _,   _,  18,   3,  22,   _,   2,  12,   _,  21,  20,   _,  15,   7,   _,  13,   _,   8,   _,  10,  14,   5,   _,   _,  17,
  23,  15,   9,   _,   8,   _,   3,   _,  24,   _,   _,   _,   _,  22,   _,  21,  14,  18,  25,   _,  10,   _,  16,   _,  20,
  20,   _,   2,  14,  11,  19,   _,  16,  10,   _,  21,   _,  18,   3,   _,  24,   9,   4,   1,  22,  23,   7,  12,  25,  15,
  14,  16,   _,  23,   _,   7,  10,   _,   8,  12,   _,   _,  20,  25,   _,  15,  17,   _,   _,   _,   _,   _,   4,   _,   _,
   _,   _,   _,   8,  10,   _,   9,  18,   _,  23,   _,   _,   _,   _,   _,   7,   _,   _,   _,  20,  16,   _,   _,   _,   _,
   9,  13,   _,   2,   _,   _,   _,  20,   _,   3,   _,   1,  22,   _,  15,   _,   _,   5,  10,   _,  25,   _,  17,   7,   6,
   6,  12,   7,   _,   _,   _,   1,  11,  17,   _,  14,   _,   _,  21,  18,   9,   2,  25,   _,   _,   _,  10,   _,  23,  22,
   _,   _,   _,   _,  20,   2,   _,   _,   _,  15,  16,   8,   _,  10,   7,   _,  23,  19,   _,  21,   _,  12,   1,   _,   5
]);

n = 25;
